opti    gradient conp conse qok c6 conp prop gfnff gwolf noauto
gfnff_scale 0.7332 1.7455 0.8856 0.7002 0.9912
maths mrrrpressure 0 GPa
title
ASE calculation
end

cell
 3.874400 12.889800  8.116700 90.00000 98.96500 90.00000
frac
 C  core  0.5082000   0.7791000   0.6671000     0.00000
 C  core  0.0082000   0.2209000   0.1671000     0.00000
 C  core  0.3425000   0.8470000   0.9243000     0.00000
 C  core  0.8425000   0.1530000   0.4243000     0.00000
 N  core  0.4076000   0.6833000   0.7263000     0.00000
 N  core  0.9076000   0.3167000   0.2263000     0.00000
 C  core  0.2880000   0.6654000   0.8775000     0.00000
 C  core  0.7880000   0.3346000   0.3775000     0.00000
 N  core  0.2557000   0.7510000   0.9768000     0.00000
 N  core  0.7557000   0.2490000   0.4768000     0.00000
 O  core  0.2145000   0.5786000   0.9175000     0.00000
 O  core  0.7145000   0.4214000   0.4175000     0.00000
 O  core  0.6099000   0.7872000   0.5311000     0.00000
 O  core  0.1099000   0.2128000   0.0311000     0.00000
 N  core  0.3260000   0.9377000   0.0075000     0.00000
 N  core  0.8260000   0.0623000   0.5075000     0.00000
 C  core  0.1480000   0.7361000   0.1407000     0.00000
 C  core  0.6480000   0.2639000   0.6407000     0.00000
 H  core  0.3486000   0.7425000   0.2262000     0.00000
 H  core  0.8486000   0.2575000   0.7262000     0.00000
 H  core  0.0480000   0.6683000   0.1459000     0.00000
 H  core  0.5480000   0.3317000   0.6459000     0.00000
 H  core  0.9787000   0.7877000   0.1572000     0.00000
 H  core  0.4787000   0.2123000   0.6572000     0.00000
 C  core  0.4409000   0.0069000   0.9074000     0.00000
 C  core  0.9409000   0.9931000   0.4074000     0.00000
 H  core  0.4585000   0.0774000   0.9318000     0.00000
 H  core  0.9585000   0.9226000   0.4318000     0.00000
 C  core  0.4330000   0.5909000   0.6198000     0.00000
 C  core  0.9330000   0.4091000   0.1198000     0.00000
 H  core  0.2066000   0.5599000   0.5911000     0.00000
 H  core  0.7066000   0.4401000   0.0911000     0.00000
 H  core  0.5910000   0.5415000   0.6796000     0.00000
 H  core  0.0910000   0.4585000   0.1796000     0.00000
 H  core  0.5189000   0.6114000   0.5199000     0.00000
 H  core  0.0189000   0.3886000   0.0199000     0.00000
 C  core  0.4653000   0.8608000   0.7789000     0.00000
 C  core  0.9653000   0.1392000   0.2789000     0.00000
 N  core  0.5279000   0.9663000   0.7697000     0.00000
 N  core  0.0279000   0.0337000   0.2697000     0.00000
 H  core  0.6070000   0.9987000   0.6909000     0.00000
 H  core  0.1070000   0.0013000   0.1909000     0.00000
output movie cif out1.cif
maxcycle 20
